75 497 664 360 220 569 0 420 462 737
293 692 634 83 528 189 155 655 497 103
162 105 561 526 60 503 330 247 129 551
616 195 549 430 268 819 561 692 516 182
390 738 83 0 438 528 132 182 778 155
231 129 293 683 195 664 408 472 549 377
190 11 231 103 587 731 616 331 388 284
438 313 737 183 778 0 267 522 608 685
11 0 828 420 306 430 731 75 636 556
731 391 132 267 0 685 472 557 60 600
